sat
(:added-eqs                       13548
 :arith-eq-adapter                587
 :arith-bound-propagations-lp     875
 :arith-branch                    10
 :arith-conflicts                 2178
 :arith-cube-calls                4
 :arith-diseq                     4384
 :arith-fixed-eqs                 2030
 :arith-gcd-calls                 243
 :arith-gomory-cuts               21
 :arith-grobner-calls             568
 :arith-grobner-conflicts         239
 :arith-hnf-calls                 3
 :arith-horner-calls              151
 :arith-horner-conflicts          13
 :arith-horner-cross-nested-forms 35553
 :arith-lower                     6703
 :arith-make-feasible             6473
 :arith-max-columns               679
 :arith-max-rows                  342
 :arith-nla-add-bounds            276
 :arith-nla-lemmas                1061
 :arith-nla-propagate-bounds      791
 :arith-nla-propagate-eq          7270
 :arith-nra-calls                 310
 :arith-offset-eqs                461
 :arith-patches                   243
 :arith-patches-success           215
 :arith-upper                     12955
 :binary-propagations             27002
 :cnf-encoding-aux-vars           7
 :conflicts                       856
 :decisions                       36257
 :del-clause                      1659
 :elim-unconstrained              2
 :final-checks                    1268
 :max-memory                      144.72
 :memory                          87.69
 :minimized-lits                  564
 :mk-bool-var                     5324
 :mk-clause                       3529
 :mk-clause-binary                1409
 :nlsat-conflicts                 27377
 :nlsat-decisions                 4386
 :nlsat-irrational-assignments    3
 :nlsat-propagations              499378
 :nlsat-restarts                  14
 :nlsat-stages                    247519
 :num-allocs                      7784159799.00
 :num-checks                      2
 :propagations                    46369
 :restarts                        7
 :rlimit-count                    12390381
 :sat-backjumps                   501
 :sat-conflicts                   501
 :sat-decisions                   1896
 :sat-del-clause                  58456
 :sat-elim-bool-vars-res          10976
 :sat-elim-clauses                44
 :sat-elim-literals               1094
 :sat-minimized-lits              2691
 :sat-mk-clause-2ary              33867
 :sat-mk-clause-3ary              15586
 :sat-mk-clause-nary              93718
 :sat-mk-var                      23118
 :sat-probing-assigned            37
 :sat-propagations-2ary           180071
 :sat-propagations-nary           170613
 :sat-restarts                    38
 :sat-scc-elim-binary             127
 :sat-scc-elim-vars               31
 :sat-subs-resolution             945
 :sat-subs-resolution-dyn         98
 :sat-subsumed                    12630
 :sat-units                       52
 :solve-eqs-elim-vars             26
 :solve-eqs-steps                 354
 :time                            7.00
 :total-time                      7.02)
